m = 4; % number of couriers
n = 6; % number of packages

l = [4, 5, 4, 6]; % maximum carriable weight per courier
s = [1, 2, 1, 2, 2, 3]; % weight of each package

D = % distance matrix 
	 [| 3, 3, 2, 1, 1, 4, 2
	 | 3, 4, 2, 1, 3, 1, 2
	 | 2, 2, 2, 1, 4, 2, 3
	 | 1, 1, 1, 4, 4, 1, 3
	 | 1, 3, 4, 4, 4, 1, 2
	 | 4, 1, 2, 1, 1, 4, 2
	 | 1, 3, 3, 1, 2, 1, 3
	 |];